========================================================== 
File name: C:\DEGR\assets\definitions\MSRCPSP_Gen\200_20_64_5_C.def
Creation date: Wed May 03 10:46:03 CEST 2023
Website: http://imopse.ii.pwr.edu.pl/ 
Reference: 
Myszkowski P. B., Skowronski M. E., Olech L., Oslizlo K., 
Hybrid Ant Colony Optimization in solving Multi-Skill Resource-Constrained Project Scheduling Problem, 
Soft Computing, DOI: DOI 10.1007/s00500-014-1455-x 
========================================================== 
General characteristics: 
Tasks: 200
Resources: 20
Precedence relations: 64
Number of skill types: 5
========================================================== 
ResourceID 	 Salary 	 Skills 
1	 	 	84.5	 	 Q1: 0 	  Q4: 2 	 
2	 	 	64.4	 	 Q1: 1 	  Q0: 2 	  Q4: 1 	 
3	 	 	70.1	 	 Q3: 3 	 
4	 	 	26.9	 	 Q0: 3 	 
5	 	 	90.4	 	 Q2: 2 	  Q4: 2 	 
6	 	 	99.2	 	 Q4: 2 	  Q0: 1 	  Q2: 0 	 
7	 	 	85.8	 	 Q0: 1 	  Q1: 3 	  Q4: 0 	  Q3: 3 	 
8	 	 	69.0	 	 Q0: 3 	 
9	 	 	69.8	 	 Q1: 3 	 
10	 	 	39.1	 	 Q4: 2 	  Q3: 0 	 
11	 	 	84.2	 	 Q1: 0 	  Q2: 3 	  Q3: 1 	 
12	 	 	87.2	 	 Q0: 2 	  Q3: 1 	 
13	 	 	47.9	 	 Q3: 0 	  Q1: 2 	 
14	 	 	36.4	 	 Q3: 0 	  Q1: 1 	 
15	 	 	84.9	 	 Q2: 0 	  Q0: 3 	  Q3: 2 	  Q4: 0 	 
16	 	 	39.6	 	 Q2: 0 	  Q0: 1 	 
17	 	 	90.9	 	 Q1: 1 	 
18	 	 	80.0	 	 Q3: 2 	  Q4: 2 	  Q2: 0 	  Q1: 2 	 
19	 	 	91.1	 	 Q2: 3 	  Q0: 3 	 
20	 	 	83.9	 	 Q1: 1 	  Q2: 3 	  Q4: 0 	 
========================================================== 
TaskID 	 Duration 	 Skill 	 Predecessor IDs 
1	24	Q0:	3
2	13	Q4:	0
3	18	Q0:	3
4	21	Q1:	2
5	17	Q4:	0
6	12	Q2:	3
7	17	Q0:	1
8	12	Q0:	3
9	19	Q2:	2
10	32	Q2:	2
11	10	Q3:	0
12	16	Q1:	1
13	11	Q1:	0
14	34	Q1:	0
15	16	Q3:	3
16	12	Q4:	2	12
17	32	Q3:	3
18	12	Q3:	2
19	39	Q0:	2
20	25	Q1:	2
21	14	Q4:	1
22	10	Q0:	3
23	35	Q3:	0
24	24	Q0:	3
25	32	Q2:	0
26	18	Q1:	3
27	10	Q4:	2
28	16	Q0:	1	14
29	14	Q4:	2
30	29	Q3:	3
31	9	Q1:	0
32	20	Q1:	2
33	38	Q1:	0	27
34	37	Q4:	1	4
35	11	Q2:	2
36	15	Q1:	2
37	38	Q2:	3
38	9	Q4:	1
39	39	Q4:	0
40	25	Q3:	0
41	34	Q2:	2
42	29	Q3:	1
43	33	Q0:	1
44	19	Q2:	3
45	31	Q3:	0	21
46	25	Q4:	1	19
47	28	Q3:	0
48	37	Q0:	1
49	26	Q3:	0
50	20	Q3:	2
51	21	Q0:	2
52	20	Q2:	3
53	32	Q0:	1
54	31	Q4:	0
55	40	Q2:	2
56	12	Q3:	1
57	19	Q2:	0
58	31	Q1:	1
59	31	Q2:	2
60	28	Q1:	2
61	29	Q0:	3
62	10	Q3:	1	15
63	13	Q3:	1	55
64	36	Q1:	3
65	30	Q0:	3
66	34	Q2:	0
67	39	Q1:	2
68	39	Q1:	1
69	26	Q0:	3
70	15	Q0:	2
71	18	Q1:	0
72	31	Q0:	1
73	28	Q0:	2
74	25	Q1:	1
75	11	Q2:	0
76	25	Q2:	3	3
77	13	Q2:	0
78	9	Q3:	1
79	32	Q0:	2
80	36	Q2:	0
81	13	Q3:	2	65	23
82	14	Q4:	2
83	23	Q3:	0
84	19	Q2:	3
85	21	Q2:	2
86	26	Q0:	3
87	13	Q3:	1
88	34	Q3:	2	34
89	12	Q3:	2
90	26	Q4:	1
91	40	Q2:	0	7
92	34	Q1:	1
93	12	Q1:	3	19
94	12	Q0:	2	11
95	34	Q0:	1
96	28	Q3:	3
97	11	Q1:	2
98	36	Q2:	2	28	3
99	27	Q2:	0
100	20	Q0:	3
101	38	Q1:	2
102	9	Q1:	2
103	33	Q2:	0
104	34	Q2:	2
105	34	Q4:	0
106	10	Q0:	2	26
107	18	Q0:	2
108	19	Q2:	0
109	21	Q2:	2
110	15	Q3:	3
111	28	Q4:	1
112	34	Q3:	0
113	20	Q4:	0
114	17	Q1:	0
115	11	Q3:	1
116	17	Q3:	0
117	12	Q0:	3
118	29	Q4:	2
119	36	Q3:	2
120	14	Q0:	1
121	31	Q2:	0
122	23	Q1:	1
123	13	Q2:	3
124	23	Q3:	3
125	36	Q4:	0
126	26	Q0:	1	58
127	31	Q4:	0
128	25	Q1:	0	44
129	30	Q4:	2	37	15
130	37	Q0:	3
131	36	Q4:	2
132	29	Q4:	1
133	37	Q4:	2	112	83
134	34	Q4:	0
135	15	Q4:	2	45
136	36	Q4:	0
137	15	Q4:	0
138	24	Q1:	1
139	14	Q0:	1
140	36	Q3:	2	32
141	18	Q3:	0	58	124	127
142	32	Q3:	0
143	21	Q2:	2	119
144	11	Q4:	2	133
145	18	Q3:	2	141
146	18	Q4:	2	70
147	33	Q0:	2
148	39	Q4:	1
149	33	Q0:	3	75
150	29	Q3:	2	111
151	25	Q1:	0
152	28	Q0:	2
153	20	Q2:	0
154	13	Q4:	2	114
155	16	Q0:	1	135
156	15	Q1:	3	37
157	13	Q0:	3	142	37
158	26	Q3:	2
159	15	Q3:	2	99	100
160	23	Q3:	0
161	25	Q3:	0	8
162	22	Q0:	2
163	23	Q3:	2
164	17	Q0:	2
165	35	Q1:	0
166	30	Q3:	1	33
167	35	Q3:	3	112
168	11	Q1:	1	99
169	11	Q3:	3
170	9	Q4:	0
171	32	Q2:	2
172	14	Q0:	1
173	39	Q1:	0	48
174	17	Q4:	0
175	21	Q2:	2
176	11	Q2:	0	64
177	36	Q3:	0	123
178	38	Q1:	3	140
179	40	Q2:	0
180	18	Q3:	1	34	130
181	22	Q2:	3
182	25	Q1:	2	173
183	27	Q0:	3
184	25	Q1:	0
185	20	Q4:	2	37	54
186	35	Q3:	2
187	33	Q2:	0	1
188	15	Q1:	1
189	34	Q0:	1
190	16	Q4:	2
191	22	Q0:	3
192	13	Q1:	1	119	27
193	33	Q0:	3	94
194	33	Q3:	2	131	51
195	22	Q1:	1	72	115
196	9	Q1:	3	155
197	16	Q4:	1
198	17	Q4:	1
199	28	Q4:	1
200	15	Q0:	1
========================================================== 